Instance0
Gap









13.81%
13.55%
13.51%
10.67%
10.67%
10.67%
10.25%
10.04%
9.31%
9.07%
7.80%
7.42%
6.13%
5.40%
5.19%
5.19%
5.11%
5.06%
4.59%
4.54%
4.38%
4.35%
4.33%
4.32%
4.31%
1.48%
CPXPARAM_MIP_Cuts_CPXPARAM_MIP_Cuts_LiftProj-CPXPARAM_MIP_Cuts_Covers 0
Instance1
CPXPARAM_MIP_Cuts_CPXPARAM_MIP_Cuts_LiftProj-CPXPARAM_MIP_Cuts_Covers 17
Instance2
Gap



77.40%
77.40%
CPXPARAM_MIP_Cuts_CPXPARAM_MIP_Cuts_LiftProj-CPXPARAM_MIP_Cuts_Covers 2
Instance3
CPXPARAM_MIP_Cuts_CPXPARAM_MIP_Cuts_LiftProj-CPXPARAM_MIP_Cuts_Covers 0
Instance4
Gap


0.35%
0.35%
0.35%
0
CPXPARAM_MIP_Cuts_CPXPARAM_MIP_Cuts_LiftProj-CPXPARAM_MIP_Cuts_Covers 0
Instance5
CPXPARAM_MIP_Cuts_CPXPARAM_MIP_Cuts_LiftProj-CPXPARAM_MIP_Cuts_Covers 0
Instance6
Gap

0.00%
0
CPXPARAM_MIP_Cuts_CPXPARAM_MIP_Cuts_LiftProj-CPXPARAM_MIP_Cuts_Covers 0
Instance7
CPXPARAM_MIP_Cuts_CPXPARAM_MIP_Cuts_LiftProj-CPXPARAM_MIP_Cuts_Covers 0
Instance8
Gap

0
CPXPARAM_MIP_Cuts_CPXPARAM_MIP_Cuts_LiftProj-CPXPARAM_MIP_Cuts_Covers 0
Instance9
CPXPARAM_MIP_Cuts_CPXPARAM_MIP_Cuts_LiftProj-CPXPARAM_MIP_Cuts_Covers 0
Instance10
Gap



0
CPXPARAM_MIP_Cuts_CPXPARAM_MIP_Cuts_LiftProj-CPXPARAM_MIP_Cuts_Covers 0
Instance11
CPXPARAM_MIP_Cuts_CPXPARAM_MIP_Cuts_LiftProj-CPXPARAM_MIP_Cuts_Covers 3
Instance12
Gap
111.50%
92.96%
0.13%
0.13%
0.13%
0.13%
CPXPARAM_MIP_Cuts_CPXPARAM_MIP_Cuts_LiftProj-CPXPARAM_MIP_Cuts_Covers 0
Instance13
CPXPARAM_MIP_Cuts_CPXPARAM_MIP_Cuts_LiftProj-CPXPARAM_MIP_Cuts_Covers 0
Instance14
Gap

23.59%
23.59%
23.59%
CPXPARAM_MIP_Cuts_CPXPARAM_MIP_Cuts_LiftProj-CPXPARAM_MIP_Cuts_Covers 0
Instance15
CPXPARAM_MIP_Cuts_CPXPARAM_MIP_Cuts_LiftProj-CPXPARAM_MIP_Cuts_Covers 1
Instance16
Gap










2.94%
2.94%
2.94%
2.87%
2.72%
2.70%
2.69%
2.67%
2.66%
2.59%
2.52%
2.49%
2.25%
2.14%
1.86%
1.86%
1.63%
CPXPARAM_MIP_Cuts_CPXPARAM_MIP_Cuts_LiftProj-CPXPARAM_MIP_Cuts_Covers 0
Instance17
CPXPARAM_MIP_Cuts_CPXPARAM_MIP_Cuts_LiftProj-CPXPARAM_MIP_Cuts_Covers 10
Instance18
Gap















0
CPXPARAM_MIP_Cuts_CPXPARAM_MIP_Cuts_LiftProj-CPXPARAM_MIP_Cuts_Covers 1
Instance19
CPXPARAM_MIP_Cuts_CPXPARAM_MIP_Cuts_LiftProj-CPXPARAM_MIP_Cuts_Covers 10
Instance20
Gap



0.01%
CPXPARAM_MIP_Cuts_CPXPARAM_MIP_Cuts_LiftProj-CPXPARAM_MIP_Cuts_Covers 0
Instance21
CPXPARAM_MIP_Cuts_CPXPARAM_MIP_Cuts_LiftProj-CPXPARAM_MIP_Cuts_Covers 2
Instance22
Gap

0.02%
0
CPXPARAM_MIP_Cuts_CPXPARAM_MIP_Cuts_LiftProj-CPXPARAM_MIP_Cuts_Covers 0
Instance23
CPXPARAM_MIP_Cuts_CPXPARAM_MIP_Cuts_LiftProj-CPXPARAM_MIP_Cuts_Covers 0
Instance24
Gap






22.55%
21.15%
20.98%
20.34%
20.06%
19.94%
19.84%
19.58%
19.44%
19.33%
19.22%
19.13%
18.84%
18.71%
18.06%
18.02%
17.93%
17.63%
17.34%
16.98%
9.46%
9.46%
9.46%
9.27%
9.09%
9.03%
8.79%
7.98%
7.89%
7.78%
7.48%
7.45%
7.38%
7.37%
7.37%
7.36%
7.36%
6.74%
CPXPARAM_MIP_Cuts_CPXPARAM_MIP_Cuts_LiftProj-CPXPARAM_MIP_Cuts_Covers 0
Instance25
CPXPARAM_MIP_Cuts_CPXPARAM_MIP_Cuts_LiftProj-CPXPARAM_MIP_Cuts_Covers 18
Instance26
Gap

37.35%
37.35%
CPXPARAM_MIP_Cuts_CPXPARAM_MIP_Cuts_LiftProj-CPXPARAM_MIP_Cuts_Covers 0
Instance27
CPXPARAM_MIP_Cuts_CPXPARAM_MIP_Cuts_LiftProj-CPXPARAM_MIP_Cuts_Covers 0
Instance28
Gap

1.86%
1.86%
1.86%
1.86%
CPXPARAM_MIP_Cuts_CPXPARAM_MIP_Cuts_LiftProj-CPXPARAM_MIP_Cuts_Covers 0
Instance29
CPXPARAM_MIP_Cuts_CPXPARAM_MIP_Cuts_LiftProj-CPXPARAM_MIP_Cuts_Covers 0
Instance30
Gap
112.51%
98.57%
3.14%
3.14%
3.14%
3.14%
CPXPARAM_MIP_Cuts_CPXPARAM_MIP_Cuts_LiftProj-CPXPARAM_MIP_Cuts_Covers 0
Instance31
CPXPARAM_MIP_Cuts_CPXPARAM_MIP_Cuts_LiftProj-CPXPARAM_MIP_Cuts_Covers 0
Instance32
Gap



4.87%
4.87%
4.87%
4.59%
0
CPXPARAM_MIP_Cuts_CPXPARAM_MIP_Cuts_LiftProj-CPXPARAM_MIP_Cuts_Covers 1
Instance33
CPXPARAM_MIP_Cuts_CPXPARAM_MIP_Cuts_LiftProj-CPXPARAM_MIP_Cuts_Covers 2
Instance34
Gap



0
CPXPARAM_MIP_Cuts_CPXPARAM_MIP_Cuts_LiftProj-CPXPARAM_MIP_Cuts_Covers 1
Instance35
CPXPARAM_MIP_Cuts_CPXPARAM_MIP_Cuts_LiftProj-CPXPARAM_MIP_Cuts_Covers 2
Instance36
Gap
110.91%
93.14%
93.14%
12.16%
12.16%
CPXPARAM_MIP_Cuts_CPXPARAM_MIP_Cuts_LiftProj-CPXPARAM_MIP_Cuts_Covers 0
Instance37
CPXPARAM_MIP_Cuts_CPXPARAM_MIP_Cuts_LiftProj-CPXPARAM_MIP_Cuts_Covers 1
Instance38
Gap
114.31%
97.72%
0.46%
0.46%
0.46%
0.46%
CPXPARAM_MIP_Cuts_CPXPARAM_MIP_Cuts_LiftProj-CPXPARAM_MIP_Cuts_Covers 0
Instance39
CPXPARAM_MIP_Cuts_CPXPARAM_MIP_Cuts_LiftProj-CPXPARAM_MIP_Cuts_Covers 0
Instance40
Gap



0
CPXPARAM_MIP_Cuts_CPXPARAM_MIP_Cuts_LiftProj-CPXPARAM_MIP_Cuts_Covers 2
Instance41
CPXPARAM_MIP_Cuts_CPXPARAM_MIP_Cuts_LiftProj-CPXPARAM_MIP_Cuts_Covers 0
Instance42
Gap



0
CPXPARAM_MIP_Cuts_CPXPARAM_MIP_Cuts_LiftProj-CPXPARAM_MIP_Cuts_Covers 1
Instance43
CPXPARAM_MIP_Cuts_CPXPARAM_MIP_Cuts_LiftProj-CPXPARAM_MIP_Cuts_Covers 2
Instance44
Gap

0.39%
0.39%
0.39%
0.39%
0.39%
CPXPARAM_MIP_Cuts_CPXPARAM_MIP_Cuts_LiftProj-CPXPARAM_MIP_Cuts_Covers 0
Instance45
CPXPARAM_MIP_Cuts_CPXPARAM_MIP_Cuts_LiftProj-CPXPARAM_MIP_Cuts_Covers 1
Instance46
Gap


3.15%
3.15%
3.15%
3.12%
0
CPXPARAM_MIP_Cuts_CPXPARAM_MIP_Cuts_LiftProj-CPXPARAM_MIP_Cuts_Covers 0
Instance47
CPXPARAM_MIP_Cuts_CPXPARAM_MIP_Cuts_LiftProj-CPXPARAM_MIP_Cuts_Covers 2
Instance48
Gap

10.00%
10.00%
10.00%
10.00%
CPXPARAM_MIP_Cuts_CPXPARAM_MIP_Cuts_LiftProj-CPXPARAM_MIP_Cuts_Covers 0
Instance49
CPXPARAM_MIP_Cuts_CPXPARAM_MIP_Cuts_LiftProj-CPXPARAM_MIP_Cuts_Covers 0
Instance50
Gap



0
48.59%
CPXPARAM_MIP_Cuts_CPXPARAM_MIP_Cuts_LiftProj-CPXPARAM_MIP_Cuts_Covers 2
Instance51
CPXPARAM_MIP_Cuts_CPXPARAM_MIP_Cuts_LiftProj-CPXPARAM_MIP_Cuts_Covers 0
Instance52
Gap
0.00%
CPXPARAM_MIP_Cuts_CPXPARAM_MIP_Cuts_LiftProj-CPXPARAM_MIP_Cuts_Covers 0
Instance53
CPXPARAM_MIP_Cuts_CPXPARAM_MIP_Cuts_LiftProj-CPXPARAM_MIP_Cuts_Covers 0
Instance54
Gap

0.42%
0.42%
0.42%
0.42%
CPXPARAM_MIP_Cuts_CPXPARAM_MIP_Cuts_LiftProj-CPXPARAM_MIP_Cuts_Covers 0
Instance55
CPXPARAM_MIP_Cuts_CPXPARAM_MIP_Cuts_LiftProj-CPXPARAM_MIP_Cuts_Covers 0
Instance56
Gap



0
CPXPARAM_MIP_Cuts_CPXPARAM_MIP_Cuts_LiftProj-CPXPARAM_MIP_Cuts_Covers 1
Instance57
CPXPARAM_MIP_Cuts_CPXPARAM_MIP_Cuts_LiftProj-CPXPARAM_MIP_Cuts_Covers 2
Instance58
Gap
111.49%
406.57%
82.87%
82.87%
82.87%
82.87%
CPXPARAM_MIP_Cuts_CPXPARAM_MIP_Cuts_LiftProj-CPXPARAM_MIP_Cuts_Covers 0
Instance59
CPXPARAM_MIP_Cuts_CPXPARAM_MIP_Cuts_LiftProj-CPXPARAM_MIP_Cuts_Covers 3
Instance60
Gap
120.75%
227.70%
17.33%
17.33%
0.85%
0.85%
0.85%
0.85%
CPXPARAM_MIP_Cuts_CPXPARAM_MIP_Cuts_LiftProj-CPXPARAM_MIP_Cuts_Covers 0
Instance61
CPXPARAM_MIP_Cuts_CPXPARAM_MIP_Cuts_LiftProj-CPXPARAM_MIP_Cuts_Covers 1
Instance62
Gap

5.20%
5.20%
5.20%
5.20%
CPXPARAM_MIP_Cuts_CPXPARAM_MIP_Cuts_LiftProj-CPXPARAM_MIP_Cuts_Covers 0
Instance63
CPXPARAM_MIP_Cuts_CPXPARAM_MIP_Cuts_LiftProj-CPXPARAM_MIP_Cuts_Covers 0
Instance64
Gap



0
CPXPARAM_MIP_Cuts_CPXPARAM_MIP_Cuts_LiftProj-CPXPARAM_MIP_Cuts_Covers 1
Instance65
CPXPARAM_MIP_Cuts_CPXPARAM_MIP_Cuts_LiftProj-CPXPARAM_MIP_Cuts_Covers 1
Instance66
Gap



0
CPXPARAM_MIP_Cuts_CPXPARAM_MIP_Cuts_LiftProj-CPXPARAM_MIP_Cuts_Covers 0
Instance67
CPXPARAM_MIP_Cuts_CPXPARAM_MIP_Cuts_LiftProj-CPXPARAM_MIP_Cuts_Covers 3
Instance68
Gap



0.14%
0.14%
0.13%
0
CPXPARAM_MIP_Cuts_CPXPARAM_MIP_Cuts_LiftProj-CPXPARAM_MIP_Cuts_Covers 0
Instance69
CPXPARAM_MIP_Cuts_CPXPARAM_MIP_Cuts_LiftProj-CPXPARAM_MIP_Cuts_Covers 2
Instance70
Gap


2.41%
2.41%
2.41%
0
CPXPARAM_MIP_Cuts_CPXPARAM_MIP_Cuts_LiftProj-CPXPARAM_MIP_Cuts_Covers 0
Instance71
CPXPARAM_MIP_Cuts_CPXPARAM_MIP_Cuts_LiftProj-CPXPARAM_MIP_Cuts_Covers 1
Instance72
Gap


8.38%
8.38%
8.38%
8.38%
8.02%
CPXPARAM_MIP_Cuts_CPXPARAM_MIP_Cuts_LiftProj-CPXPARAM_MIP_Cuts_Covers 0
Instance73
CPXPARAM_MIP_Cuts_CPXPARAM_MIP_Cuts_LiftProj-CPXPARAM_MIP_Cuts_Covers 2
Instance74
Gap



161.00%
161.00%
CPXPARAM_MIP_Cuts_CPXPARAM_MIP_Cuts_LiftProj-CPXPARAM_MIP_Cuts_Covers 0
Instance75
CPXPARAM_MIP_Cuts_CPXPARAM_MIP_Cuts_LiftProj-CPXPARAM_MIP_Cuts_Covers 2
Instance76
Gap

0.21%
0.21%
0.21%
0.21%
CPXPARAM_MIP_Cuts_CPXPARAM_MIP_Cuts_LiftProj-CPXPARAM_MIP_Cuts_Covers 0
Instance77
CPXPARAM_MIP_Cuts_CPXPARAM_MIP_Cuts_LiftProj-CPXPARAM_MIP_Cuts_Covers 0
Instance78
Gap

0.50%
0.50%
0.50%
0
CPXPARAM_MIP_Cuts_CPXPARAM_MIP_Cuts_LiftProj-CPXPARAM_MIP_Cuts_Covers 0
Instance79
CPXPARAM_MIP_Cuts_CPXPARAM_MIP_Cuts_LiftProj-CPXPARAM_MIP_Cuts_Covers 0
